Using license file /home/benedond/gurobi.lic
Using gurobi.env file
Set parameter Threads to value 1
Academic license - for non-commercial use only
Gurobi Optimizer version 9.0.1 build v9.0.1rc0 (linux64)
Optimize a model with 241 rows, 210 columns and 838 nonzeros
Model fingerprint: 0x6d977e41
Variable types: 10 continuous, 200 integer (200 binary)
Coefficient statistics:
  Matrix range     [1e+00, 3e+02]
  Objective range  [0e+00, 0e+00]
  Bounds range     [1e+00, 1e+00]
  RHS range        [1e+00, 3e+02]
Presolve removed 239 rows and 210 columns
Presolve time: 0.00s

Explored 0 nodes (0 simplex iterations) in 0.00 seconds
Thread count was 1 (of 4 available processors)

Solution count 0

Model is infeasible
Best objective -, best bound -, gap -
Gurobi Optimizer version 9.0.1 build v9.0.1rc0 (linux64)
Optimize a model with 241 rows, 210 columns and 838 nonzeros
Model fingerprint: 0x410f7224
Variable types: 10 continuous, 200 integer (200 binary)
Coefficient statistics:
  Matrix range     [1e+00, 3e+02]
  Objective range  [0e+00, 0e+00]
  Bounds range     [1e+00, 1e+00]
  RHS range        [1e+00, 3e+02]
Presolve removed 190 rows and 159 columns
Presolve time: 0.01s
Presolved: 51 rows, 51 columns, 166 nonzeros
Variable types: 4 continuous, 47 integer (47 binary)
Found heuristic solution: objective 0.0000000

Explored 0 nodes (0 simplex iterations) in 0.01 seconds
Thread count was 1 (of 4 available processors)

Solution count 1: 0 

Optimal solution found (tolerance 1.00e-04)
Best objective 0.000000000000e+00, best bound 0.000000000000e+00, gap 0.0000%
Gurobi Optimizer version 9.0.1 build v9.0.1rc0 (linux64)
Optimize a model with 242 rows, 210 columns and 848 nonzeros
Model fingerprint: 0x00ee5f7a
Variable types: 10 continuous, 200 integer (200 binary)
Coefficient statistics:
  Matrix range     [1e+00, 3e+02]
  Objective range  [0e+00, 0e+00]
  Bounds range     [1e+00, 1e+00]
  RHS range        [1e+00, 3e+02]
Presolve removed 22 rows and 20 columns
Presolve time: 0.00s

Explored 0 nodes (0 simplex iterations) in 0.00 seconds
Thread count was 1 (of 4 available processors)

Solution count 0

Model is infeasible
Best objective -, best bound -, gap -
Gurobi Optimizer version 9.0.1 build v9.0.1rc0 (linux64)
Optimize a model with 242 rows, 210 columns and 848 nonzeros
Model fingerprint: 0x59b08b48
Variable types: 10 continuous, 200 integer (200 binary)
Coefficient statistics:
  Matrix range     [1e+00, 3e+02]
  Objective range  [0e+00, 0e+00]
  Bounds range     [1e+00, 1e+00]
  RHS range        [1e+00, 3e+02]
Presolve removed 203 rows and 164 columns
Presolve time: 0.01s
Presolved: 39 rows, 46 columns, 139 nonzeros
Variable types: 0 continuous, 46 integer (43 binary)
Found heuristic solution: objective 0.0000000

Explored 0 nodes (0 simplex iterations) in 0.01 seconds
Thread count was 1 (of 4 available processors)

Solution count 1: 0 

Optimal solution found (tolerance 1.00e-04)
Best objective 0.000000000000e+00, best bound 0.000000000000e+00, gap 0.0000%
Gurobi Optimizer version 9.0.1 build v9.0.1rc0 (linux64)
Optimize a model with 243 rows, 210 columns and 858 nonzeros
Model fingerprint: 0x3c0cdc5e
Variable types: 10 continuous, 200 integer (200 binary)
Coefficient statistics:
  Matrix range     [1e+00, 3e+02]
  Objective range  [0e+00, 0e+00]
  Bounds range     [1e+00, 1e+00]
  RHS range        [1e+00, 3e+02]
Presolve removed 33 rows and 30 columns
Presolve time: 0.00s

Explored 0 nodes (0 simplex iterations) in 0.00 seconds
Thread count was 1 (of 4 available processors)

Solution count 0

Model is infeasible
Best objective -, best bound -, gap -
Gurobi Optimizer version 9.0.1 build v9.0.1rc0 (linux64)
Optimize a model with 243 rows, 210 columns and 858 nonzeros
Model fingerprint: 0x4d63b612
Variable types: 10 continuous, 200 integer (200 binary)
Coefficient statistics:
  Matrix range     [1e+00, 3e+02]
  Objective range  [0e+00, 0e+00]
  Bounds range     [1e+00, 1e+00]
  RHS range        [1e+00, 3e+02]
Presolve removed 185 rows and 153 columns
Presolve time: 0.01s
Presolved: 58 rows, 57 columns, 187 nonzeros
Variable types: 6 continuous, 51 integer (51 binary)
Found heuristic solution: objective 0.0000000

Explored 0 nodes (0 simplex iterations) in 0.01 seconds
Thread count was 1 (of 4 available processors)

Solution count 1: 0 

Optimal solution found (tolerance 1.00e-04)
Best objective 0.000000000000e+00, best bound 0.000000000000e+00, gap 0.0000%
Gurobi Optimizer version 9.0.1 build v9.0.1rc0 (linux64)
Optimize a model with 244 rows, 210 columns and 868 nonzeros
Model fingerprint: 0x533f3c0e
Variable types: 10 continuous, 200 integer (200 binary)
Coefficient statistics:
  Matrix range     [1e+00, 3e+02]
  Objective range  [0e+00, 0e+00]
  Bounds range     [1e+00, 1e+00]
  RHS range        [1e+00, 3e+02]
Presolve removed 206 rows and 166 columns
Presolve time: 0.01s
Presolved: 38 rows, 44 columns, 133 nonzeros
Variable types: 0 continuous, 44 integer (41 binary)
Found heuristic solution: objective 0.0000000

Explored 0 nodes (0 simplex iterations) in 0.01 seconds
Thread count was 1 (of 4 available processors)

Solution count 1: 0 

Optimal solution found (tolerance 1.00e-04)
Best objective 0.000000000000e+00, best bound 0.000000000000e+00, gap 0.0000%
Gurobi Optimizer version 9.0.1 build v9.0.1rc0 (linux64)
Optimize a model with 245 rows, 210 columns and 878 nonzeros
Model fingerprint: 0x40350865
Variable types: 10 continuous, 200 integer (200 binary)
Coefficient statistics:
  Matrix range     [1e+00, 3e+02]
  Objective range  [0e+00, 0e+00]
  Bounds range     [1e+00, 1e+00]
  RHS range        [1e+00, 3e+02]
Found heuristic solution: objective 0.0000000

Explored 0 nodes (0 simplex iterations) in 0.00 seconds
Thread count was 1 (of 4 available processors)

Solution count 1: 0 

Optimal solution found (tolerance 1.00e-04)
Best objective 0.000000000000e+00, best bound 0.000000000000e+00, gap 0.0000%
Gurobi Optimizer version 9.0.1 build v9.0.1rc0 (linux64)
Optimize a model with 246 rows, 210 columns and 888 nonzeros
Model fingerprint: 0x77d36ec4
Variable types: 10 continuous, 200 integer (200 binary)
Coefficient statistics:
  Matrix range     [1e+00, 3e+02]
  Objective range  [0e+00, 0e+00]
  Bounds range     [1e+00, 1e+00]
  RHS range        [1e+00, 3e+02]
Presolve removed 196 rows and 163 columns
Presolve time: 0.00s
Presolved: 50 rows, 47 columns, 155 nonzeros
Variable types: 6 continuous, 41 integer (41 binary)
Found heuristic solution: objective 0.0000000

Explored 0 nodes (0 simplex iterations) in 0.01 seconds
Thread count was 1 (of 4 available processors)

Solution count 1: 0 

Optimal solution found (tolerance 1.00e-04)
Best objective 0.000000000000e+00, best bound 0.000000000000e+00, gap 0.0000%
Gurobi Optimizer version 9.0.1 build v9.0.1rc0 (linux64)
Optimize a model with 247 rows, 210 columns and 898 nonzeros
Model fingerprint: 0x68a82447
Variable types: 10 continuous, 200 integer (200 binary)
Coefficient statistics:
  Matrix range     [1e+00, 3e+02]
  Objective range  [0e+00, 0e+00]
  Bounds range     [1e+00, 1e+00]
  RHS range        [1e+00, 3e+02]
Presolve removed 211 rows and 177 columns
Presolve time: 0.00s
Presolved: 36 rows, 33 columns, 111 nonzeros
Variable types: 3 continuous, 30 integer (30 binary)
Found heuristic solution: objective 0.0000000

Explored 0 nodes (0 simplex iterations) in 0.01 seconds
Thread count was 1 (of 4 available processors)

Solution count 1: 0 

Optimal solution found (tolerance 1.00e-04)
Best objective 0.000000000000e+00, best bound 0.000000000000e+00, gap 0.0000%
Gurobi Optimizer version 9.0.1 build v9.0.1rc0 (linux64)
Optimize a model with 248 rows, 210 columns and 908 nonzeros
Model fingerprint: 0xacd5eac6
Variable types: 10 continuous, 200 integer (200 binary)
Coefficient statistics:
  Matrix range     [1e+00, 3e+02]
  Objective range  [0e+00, 0e+00]
  Bounds range     [1e+00, 1e+00]
  RHS range        [1e+00, 3e+02]
Presolve removed 215 rows and 180 columns
Presolve time: 0.00s
Presolved: 33 rows, 30 columns, 99 nonzeros
Variable types: 3 continuous, 27 integer (27 binary)
Found heuristic solution: objective 0.0000000

Explored 0 nodes (0 simplex iterations) in 0.00 seconds
Thread count was 1 (of 4 available processors)

Solution count 1: 0 

Optimal solution found (tolerance 1.00e-04)
Best objective 0.000000000000e+00, best bound 0.000000000000e+00, gap 0.0000%
Gurobi Optimizer version 9.0.1 build v9.0.1rc0 (linux64)
Optimize a model with 249 rows, 210 columns and 918 nonzeros
Model fingerprint: 0xfcfd4833
Variable types: 10 continuous, 200 integer (200 binary)
Coefficient statistics:
  Matrix range     [1e+00, 3e+02]
  Objective range  [0e+00, 0e+00]
  Bounds range     [1e+00, 1e+00]
  RHS range        [1e+00, 3e+02]
Presolve removed 218 rows and 183 columns
Presolve time: 0.00s
Presolved: 31 rows, 27 columns, 90 nonzeros
Variable types: 3 continuous, 24 integer (24 binary)
Found heuristic solution: objective 0.0000000

Explored 0 nodes (0 simplex iterations) in 0.00 seconds
Thread count was 1 (of 4 available processors)

Solution count 1: 0 

Optimal solution found (tolerance 1.00e-04)
Best objective 0.000000000000e+00, best bound 0.000000000000e+00, gap 0.0000%
Gurobi Optimizer version 9.0.1 build v9.0.1rc0 (linux64)
Optimize a model with 250 rows, 210 columns and 928 nonzeros
Model fingerprint: 0xbae9d9d3
Variable types: 10 continuous, 200 integer (200 binary)
Coefficient statistics:
  Matrix range     [1e+00, 3e+02]
  Objective range  [0e+00, 0e+00]
  Bounds range     [1e+00, 1e+00]
  RHS range        [1e+00, 3e+02]
Presolve removed 221 rows and 186 columns
Presolve time: 0.00s
Presolved: 29 rows, 24 columns, 81 nonzeros
Variable types: 3 continuous, 21 integer (21 binary)
Found heuristic solution: objective 0.0000000

Explored 0 nodes (0 simplex iterations) in 0.00 seconds
Thread count was 1 (of 4 available processors)

Solution count 1: 0 

Optimal solution found (tolerance 1.00e-04)
Best objective 0.000000000000e+00, best bound 0.000000000000e+00, gap 0.0000%
Gurobi Optimizer version 9.0.1 build v9.0.1rc0 (linux64)
Optimize a model with 250 rows, 210 columns and 928 nonzeros
Model fingerprint: 0xbae9d9d3
Variable types: 10 continuous, 200 integer (200 binary)
Coefficient statistics:
  Matrix range     [1e+00, 3e+02]
  Objective range  [0e+00, 0e+00]
  Bounds range     [1e+00, 1e+00]
  RHS range        [1e+00, 3e+02]
Presolve removed 221 rows and 186 columns
Presolve time: 0.00s
Presolved: 29 rows, 24 columns, 81 nonzeros
Variable types: 3 continuous, 21 integer (21 binary)
Found heuristic solution: objective 0.0000000

Explored 0 nodes (0 simplex iterations) in 0.00 seconds
Thread count was 1 (of 4 available processors)

Solution count 1: 0 

Optimal solution found (tolerance 1.00e-04)
Best objective 0.000000000000e+00, best bound 0.000000000000e+00, gap 0.0000%
